p cnf 10 41
8 -6 9 0
-1 -5 6 0
6 2 7 0
1 -6 2 0
-3 1 -9 0
-4 -1 -9 0
-9 -4 -10 0
8 -6 -9 0
5 -8 4 0
6 -4 -8 0
1 10 -7 0
7 -1 5 0
8 -5 -9 0
3 5 1 0
3 2 7 0
2 3 -9 0
-3 10 -1 0
2 -9 8 0
-9 8 -6 0
-5 10 8 0
-8 -9 -7 0
2 1 3 0
-3 2 9 0
6 9 4 0
3 2 9 0
-5 -8 4 0
-2 -8 -10 0
-4 10 8 0
10 -5 6 0
-3 -5 -6 0
-3 4 -5 0
-7 -6 3 0
8 6 1 0
-4 7 -3 0
-8 -9 10 0
-8 4 -9 0
-5 10 9 0
9 8 -6 0
-5 -9 4 0
-9 -7 -4 0
-4 -5 -2 0
